%mem=800MB
# freq b3lyp/6-311g(d,p)

scan_00

0 1
N       0.00000   0.00000  -1.06259
N       0.00000   0.00000   0.18447
O       0.00000   0.00000   0.76835





