%mem=800MB
# freq b3lyp/6-311g(d,p)

scan_01

0 3
N       0.00000   0.00000  -1.72451
N       0.00000   0.00000   0.46240
O       0.00000   0.00000   1.10434


B 2 3 0.6419 F



