%nprocshared=2
# b3lyp/6-311g(d,p)

Title Card Required

0 1
 C                 -3.17351580    0.11415525    0.00000000
 H                 -2.81686137   -0.89465475    0.00000000
 H                 -2.81684295    0.61855344   -0.87365150
 H                 -4.24351580    0.11416843    0.00000000
 C                 -2.66017358    0.84011152    1.25740497
 H                 -3.01523014    1.84948454    1.25642758
 H                 -3.01844254    0.33684352    2.13105517
 C                 -1.12017618    0.83765462    1.25881307
 H                 -0.76190784    1.34059591    0.38497449
 H                 -0.76350265    1.34237904    2.13227586
 H                 -0.76512031   -0.17171820    1.26016721

