# opt=modredundant b3lyp/6-311g(d,p) geom=connectivity

Title Card Required

0 1
N                  0.00000000    0.00000000   -1.19842600
N                  0.00000000    0.00000000   -0.07213700
O                  0.00000000    0.00000000    1.11174200

1 2 3.0
2 3 2.0
3

B 2 3 0.783879 F


