units           real
atom_style      full
boundary        p p p
dielectric      1
special_bonds   lj/coul 0.0 0.0 1.0 

pair_style      lj/charmm/coul/long/opt 13 14.00000 
bond_style      harmonic  
angle_style     hybrid cosine/squared  cosine/periodic  
dihedral_style  harmonic  
improper_style  umbrella  
kspace_style    pppm 0.001   

read_data       data.lammps

pair_modify     mix geometric
neighbor        2.0 multi
neigh_modify    every 2 delay 4 check yes
thermo_style    multi
thermo_modify	line multi format float %14.6f
angle_coeff	    1 cosine/periodic    39.93993057           -1            3 # C_3 C_2 O_3 
angle_coeff	    2 cosine/squared     68.66000075    106.70000000 # C_3 N_3 H_ 
angle_coeff	    3 cosine/squared     68.57506120    109.47120000 # C_2 C_3 H_ 
angle_coeff	    4 cosine/squared    206.19712597    109.47120000 # C_2 C_3 N_3 
angle_coeff	    5 cosine/periodic    40.37463524           -1            3 # O_2 C_2 C_3 
angle_coeff	    6 cosine/periodic    50.56871567           -1            3 # O_2 C_2 O_3 
angle_coeff	    7 cosine/squared     35.33180817    109.47120000 # H_ C_3 H_ 
angle_coeff	    8 cosine/squared     37.72962975    106.70000000 # H_ N_3 H_ 
angle_coeff	    9 cosine/squared     93.29111135    109.47120000 # N_3 C_3 H_ 

variable        input index in.lammps
variable        sname index lammps

print                          .
print ==========================================
print "500 steps CG Minimization"
print ==========================================
print                          .

dump            1 all atom 25 ${sname}.min.lammpstrj
dump_modify     1 image yes scale yes
thermo          10
min_style       sd
minimize        1.0e-4 1.0e-4 500 5000
min_style       cg
minimize        1.0e-4 1.0e-4 500 5000
#now minimize the entire system
minimize        1.0e-4 1.0e-4 500 5000
undump          1

print                          .
print =====================================
print "NVT dynamics to heat system"
print =====================================
print            .

reset_timestep  0
timestep        1.0
fix             shakeH all shake 0.0001 20 500 m 1.008
velocity        all create 0.0 12345678 dist uniform
thermo          100
thermo_style    multi
timestep        1.0
dump            1 all custom 1000 ${sname}.heat.lammpstrj id type xu yu zu vx vy vz
fix             4 all nvt temp 1.0 300.0 100.0
run             10000
unfix           4
undump          1

print                          .
print ================================================
print "NPT dynamics with an isotropic pressure of 1atm."
print ================================================
print                       .

timestep        2.0
fix             2 all npt temp 300.0 300.0 100.0 iso 1.0 1.0 2000.0
thermo          100
thermo_style    multi
restart         50000 ${sname}.npt.*.restart
dump            1 all custom 5000 ${sname}.npt.lammps id type xu yu zu vx vy vz
run             7500000 # run for 15 ns
unfix           2
undump          1

log		${sname}.2pt.eng
print                            .
print ===================================================
print "20000 STEPS NVT dynamics dumping velocities for vac"
print ==================================================
print                             .

fix             2 all nvt temp 300.0 300.0 100.0
thermo          2
thermo_style    custom etotal ke temp pe ebond eangle edihed eimp evdwl ecoul elong press vol
thermo_modify   line multi
timestep        1.0
dump            1 all custom 2 ${sname}.2pt.lammps id type xu yu zu vx vy vz
run             10000 #run for 20ps dumping velocities every 2ps
unfix           2
undump          1
