 System    = MD
 ISTART    = 0
 ICHARG    = 2
 PREC      = N
 ENCUT     = 400
 LREAL     = Auto
 EDIFF     = 1.0E-5
 ISMEAR    = 1
 SIGMA     = 0.2
 ALGO      = Very Fast
 ISIF      = 2
 ISYM      = 0            
 NELMIN    = 4
 IVDW      = 12
 IDIPOL    = 3
 NPAR      = 2
 IBRION    = 0
 NSW       = 5000     
 NWRITE    = 0
 LCHARG    = .FALSE.
 LWAVE     = .FALSE.
 TEBEG     = 300.0
 TEEND     = 300.0
 MDALGO    = 21         
 SMASS     = 2.5        
 NBLOCK    = 1         
 KBLOCK    = 50
 POTIM     = 1.2000    
 HILLS_H   = 0.08
 HILLS_W   = 0.18
 HILLS_BIN = 20
 
