OUTCAR.0006.+1.out 1.0e-02 
   1.00000000000000     
     2.4819487690084672    0.0000000000000000    0.0000000000000000
    -1.2409743845546799    2.1494306848475140    0.0000000000000000
     0.0000000000000010    0.0000000000000010   12.0000000000000000
   C 
     2
Cartesian
   0.0059579644    0.0037953072    1.7000404639
  -0.0059800955    1.4291550594    1.7000428205
