
#Lammps 2009 input file generate by DFF

units          real
atom_style     charge
boundary       p p p

read_data      lammps.data
#read_restart   nvt.rst

pair_style      reax/c control.reaxc
pair_coeff      * * ffield Pt

#----Neighbor Section----#
neighbor                1.0 bin
neigh_modify    delay 0 every 10 check no


#----ReaxFF Energy Terms----#
compute         reax all pair reax/c
variable eb     equal c_reax[1]
variable ea     equal c_reax[2]
variable elp    equal c_reax[3]
variable emol   equal c_reax[4]
variable ev     equal c_reax[5]
variable epen   equal c_reax[6]
variable ecoa   equal c_reax[7]
variable ehb    equal c_reax[8]
variable et     equal c_reax[9]
variable eco    equal c_reax[10]
variable ew     equal c_reax[11]
variable ep     equal c_reax[12]
variable efi    equal c_reax[13]
variable eqeq   equal c_reax[14]

fix             QEQ all qeq/reax 1 0.0 5.0 1.0e-6 reax/c

thermo          1
thermo_style    custom step etotal ke pe temp press vol v_eb v_ea v_elp v_emol v_ev v_epen v_ecoa v_ehb v_et v_eco v_ew v_ep v_efi v_eqeq cella cellb cellc cellalpha cellbeta cellgamma
thermo_modify   line multi

#fix             201 all box/relax aniso 0.0 vmax 0.001

#min_style       sd
#minimize        0 1.0e-8 1000 1000

dump            100 all custom 1 equil.lammpstrj id type x y z vx vy vz
dump_modify     100 sort id
dump            101 all cfg 1 equil.*.cfg mass type xs ys zs vx vy vz fx fy fz
dump_modify     101 element Pt 

min_style       cg
minimize        0 1.0e-8 0 0

#min_style       quickmin
#minimize        0 1.0e-8 1000 1000

write_restart   min.rst

