
#Lammps 2009 input file generate by DFF

units          real
atom_style     charge
boundary       p p p

read_data      lammps.data
#read_restart   nvt.rst

pair_style      reax/c control.reaxc
pair_coeff      * * ffield O H

#----Neighbor Section----#
neighbor                1.0 bin
neigh_modify    delay 0 every 10 check no

#----ReaxFF Energy Terms----#
compute         reax all pair reax/c
variable eb     equal c_reax[1]
variable ea     equal c_reax[2]
variable elp    equal c_reax[3]
variable emol   equal c_reax[4]
variable ev     equal c_reax[5]
variable epen   equal c_reax[6]
variable ecoa   equal c_reax[7]
variable ehb    equal c_reax[8]
variable et     equal c_reax[9]
variable eco    equal c_reax[10]
variable ew     equal c_reax[11]
variable ep     equal c_reax[12]
variable efi    equal c_reax[13]
variable eqeq   equal c_reax[14]

fix             QEQ all qeq/reax 1 0.0 10.0 1.0e-6 reax/c

thermo          1
thermo_style    custom pe pxx pyy pzz pxy pxz pyz

dump           100 all custom 1 dump.lammpstrj id type x y z fx fy fz
dump_modify    100 sort id

run            0
