Pt_fm3m\(1\1\1)                         
   1.00000000000000     
     8.3664999007999992    0.0000000000000000    0.0000000000000000
    -4.1832499503999996    7.2456014549000001    0.0000000000000000
     0.0000000000000000    0.0000000000000000   22.5541000366000013
   Pt   O    H 
    27     1     1
Selective dynamics
Direct
  0.1111000000000004  0.2222000000000008  0.1330000000000027   F   F   F
  0.4444000000000017  0.2222000000000008  0.1330000000000027   F   F   F
  0.7777999999999992  0.2222000000000008  0.1330000000000027   F   F   F
  0.1111000000000004  0.5555999999999983  0.1330000000000027   F   F   F
  0.4444000000000017  0.5555999999999983  0.1330000000000027   F   F   F
  0.7777999999999992  0.5555999999999983  0.1330000000000027   F   F   F
  0.1111000000000004  0.8888999999999996  0.1330000000000027   F   F   F
  0.4444000000000017  0.8888999999999996  0.1330000000000027   F   F   F
  0.7777999999999992  0.8888999999999996  0.1330000000000027   F   F   F
  0.2222000000000008  0.1111000000000004  0.2340000000000018   F   F   F
  0.5555999999999983  0.1111000000000004  0.2340000000000018   F   F   F
  0.8888999999999996  0.1111000000000004  0.2340000000000018   F   F   F
  0.2222000000000008  0.4444000000000017  0.2340000000000018   F   F   F
  0.5555999999999983  0.4444000000000017  0.2340000000000018   F   F   F
  0.8888999999999996  0.4444000000000017  0.2340000000000018   F   F   F
  0.2222000000000008  0.7777999999999992  0.2340000000000018   F   F   F
  0.5555999999999983  0.7777999999999992  0.2340000000000018   F   F   F
  0.8888999999999996  0.7777999999999992  0.2340000000000018   F   F   F
  0.9979151445000269  0.9986450241578737  0.3338294728242488   T   T   T
  0.3311472424524737  0.0001947085570677  0.3328984740528966   T   T   T
  0.6656686334824258  0.9992729871911408  0.3329616388502714   T   T   T
  0.9953861426853763  0.3294025712847528  0.3329287604225328   T   T   T
  0.3312308734588285  0.3302005378620905  0.3329286950934005   T   T   T
  0.6645985882188228  0.3319688682497812  0.3338569069987969   T   T   T
  0.9955386535527282  0.6654005393829223  0.3328999011712597   T   T   T
  0.3287464234588100  0.6637097273802439  0.3347755728437889   T   T   T
  0.6658460876673900  0.6656839022332832  0.3329239872615091   T   T   T
  0.3325794008799789  0.6661404805127944  0.4225383423891316   T   T   T
  0.4632377709777344  0.7210269698072196  0.4334358485443985   T   T   T
 
  0.00000000E+00  0.00000000E+00  0.00000000E+00
  0.00000000E+00  0.00000000E+00  0.00000000E+00
  0.00000000E+00  0.00000000E+00  0.00000000E+00
  0.00000000E+00  0.00000000E+00  0.00000000E+00
  0.00000000E+00  0.00000000E+00  0.00000000E+00
  0.00000000E+00  0.00000000E+00  0.00000000E+00
  0.00000000E+00  0.00000000E+00  0.00000000E+00
  0.00000000E+00  0.00000000E+00  0.00000000E+00
  0.00000000E+00  0.00000000E+00  0.00000000E+00
  0.00000000E+00  0.00000000E+00  0.00000000E+00
  0.00000000E+00  0.00000000E+00  0.00000000E+00
  0.00000000E+00  0.00000000E+00  0.00000000E+00
  0.00000000E+00  0.00000000E+00  0.00000000E+00
  0.00000000E+00  0.00000000E+00  0.00000000E+00
  0.00000000E+00  0.00000000E+00  0.00000000E+00
  0.00000000E+00  0.00000000E+00  0.00000000E+00
  0.00000000E+00  0.00000000E+00  0.00000000E+00
  0.00000000E+00  0.00000000E+00  0.00000000E+00
  0.00000000E+00  0.00000000E+00  0.00000000E+00
  0.00000000E+00  0.00000000E+00  0.00000000E+00
  0.00000000E+00  0.00000000E+00  0.00000000E+00
  0.00000000E+00  0.00000000E+00  0.00000000E+00
  0.00000000E+00  0.00000000E+00  0.00000000E+00
  0.00000000E+00  0.00000000E+00  0.00000000E+00
  0.00000000E+00  0.00000000E+00  0.00000000E+00
  0.00000000E+00  0.00000000E+00  0.00000000E+00
  0.00000000E+00  0.00000000E+00  0.00000000E+00
  0.00000000E+00  0.00000000E+00  0.00000000E+00
  0.00000000E+00  0.00000000E+00  0.00000000E+00
