
 System = ADN
##################################
#  Start parameter for this run  #
##################################
 ISTART   = 0
 ICHARG   = 2

##################################
#     Electronic Relaxation      #
##################################
 PREC     = LOW
 ENCUT    = 320
 NELMIN   = 4
 EDIFF    = 1.0E-4
# ALGO = Very Fast

##################################
# Ionic Relaxation
##################################
 ISYM    = 0            
 IBRION  = 0
 ISIF    = 2

 POTIM   = 1.2000      # Time step
 TEBEG   = 300.0
 TEEND   = 300.0
 MDALGO  = 2           # Nose-Hoover
 SMASS   = 2.5         # Unit? atomic mass units * (length of first lattice vector)^2
 NBLOCK  = 1           # Interval to save the trajectory
 KBLOCK  = 100

 NSW      = 0        # Number of steps

##################################
#General Params
##################################
 ISMEAR   = 1
 SIGMA    = 0.2

##################################
#   Output control               #
##################################
 LWAVE = .FALSE.
 LCHARG = .TRUE.
 NWRITE = 0

##################################
# Other parameters
##################################
 IVDW = 12
 IDIPOL = 3
#MAXMIX = 40
 LREAL = Auto
 IALGO = 48
 NPAR = 8

# for potential
  LVTOT = .TRUE.
  LVHAR = .TRUE.
# for charge
  LCHARG = .TRUE.
  LAECHG=.TRUE.

