add_o2_ff6_small                        
   1.00000000000000     
    11.1549997330000004    0.0000000000000000    0.0000000000000000
    -5.5774998665000002    9.6605131479999997    0.0000000000000000
     0.0000000000000000    0.0000000000000000   50.0000000000000000
   Pt   O    H 
    48    48    96
Selective dynamics
Direct
  0.0808300000000000  0.1654200000000000  0.0159800000000000   F   F   F
  0.3308500100000000  0.1654200000000000  0.0159800000000000   F   F   F
  0.5808699700000000  0.1654200000000000  0.0159800000000000   F   F   F
  0.8308900000000000  0.1654200000000000  0.0159800000000000   F   F   F
  0.0808499980000000  0.4154000000000000  0.0159800000000000   F   F   F
  0.3307800000000000  0.4154000000000000  0.0159800000000000   F   F   F
  0.5808100100000000  0.4154000000000000  0.0159800000000000   F   F   F
  0.8308299800000000  0.4154000000000000  0.0159800000000000   F   F   F
  0.0807899980000000  0.6653900100000000  0.0159800000000000   F   F   F
  0.3308100100000000  0.6653900100000000  0.0159800000000000   F   F   F
  0.5808299800000000  0.6653900100000000  0.0159800000000000   F   F   F
  0.8308600200000000  0.6653900100000000  0.0159800000000000   F   F   F
  0.0808200020000000  0.9153800000000000  0.0159800000000000   F   F   F
  0.3308399900000000  0.9153800000000000  0.0159800000000000   F   F   F
  0.5807700200000000  0.9153800000000000  0.0159800000000000   F   F   F
  0.8307899800000000  0.9153800000000000  0.0159800000000000   F   F   F
  0.1642200000000000  0.0820899980000000  0.0615199990000000   F   F   F
  0.4141500000000000  0.0820899980000000  0.0615199990000000   F   F   F
  0.6641700300000000  0.0820899980000000  0.0615199990000000   F   F   F
  0.9141899900000000  0.0820899980000000  0.0615199990000000   F   F   F
  0.1641500000000000  0.3320699900000000  0.0615199990000000   F   F   F
  0.4141800100000000  0.3320699900000000  0.0615199990000000   F   F   F
  0.6642000100000000  0.3320699900000000  0.0615199990000000   F   F   F
  0.9142199800000000  0.3320699900000000  0.0615199990000000   F   F   F
  0.1641800000000000  0.5820599800000000  0.0615199990000000   F   F   F
  0.4142000100000000  0.5820599800000000  0.0615199990000000   F   F   F
  0.6641399900000000  0.5820599800000000  0.0615199990000000   F   F   F
  0.9141600100000000  0.5820599800000000  0.0615199990000000   F   F   F
  0.1641200000000000  0.8320500300000000  0.0615199990000000   F   F   F
  0.4141399900000000  0.8320500300000000  0.0615199990000000   F   F   F
  0.6641600100000000  0.8320500300000000  0.0615199990000000   F   F   F
  0.9141899900000000  0.8320500300000000  0.0615199990000000   F   F   F
  0.0106699364357148  0.0011957551327278  0.1079059961939298   T   T   T
  0.2553708558638739  0.0010271229034202  0.1092527657676924   T   T   T
  0.5081675022298145  0.9970229924318835  0.1094844162747740   T   T   T
  0.7637372012941215  0.0020945405651474  0.1107430454416721   T   T   T
  0.0122101700707098  0.2556868309437124  0.1077289808142064   T   T   T
  0.2562105285779852  0.2424463897271376  0.1105336934564008   T   T   T
  0.4993400907370427  0.2471646538737206  0.1075061250661515   T   T   T
  0.7489180829922634  0.2543804452856716  0.1087551338055261   T   T   T
  0.0005071496301075  0.5032013669095511  0.1088462778132827   T   T   T
  0.2500473551525446  0.5053054128220793  0.1097655015056274   T   T   T
  0.5073315532918722  0.4921369608115202  0.1077227570299133   T   T   T
  0.7570945298891908  0.4999859120076733  0.1082302986675458   T   T   T
  0.0026998396548767  0.7545251113325244  0.1068359052535326   T   T   T
  0.2529920654964585  0.7546719481349446  0.1091093565704313   T   T   T
  0.5142267558971253  0.7580672555313042  0.1099233226406567   T   T   T
  0.7572048733300464  0.7512051541450677  0.1107455029293255   T   T   T
  0.9846399656269095  0.5861573470829816  0.2566923393450942   T   T   T
  0.3905118065360969  0.2806062844041238  0.2332563726504805   T   T   T
  0.0436247965298162  0.6032484318948312  0.3087950550783078   T   T   T
  0.2057522117139734  0.1017776717730534  0.2973860426839673   T   T   T
  0.7956266084404159  0.6937649316938357  0.2435207796528554   T   T   T
  0.7557161172909149  0.2527278307977674  0.1525985049675403   T   T   T
  0.7851955091982353  0.3491994640509662  0.2373855318233359   T   T   T
  0.6034169952402065  0.3658165114912959  0.2729963669013198   T   T   T
  0.5079467565436095  0.3893537226022973  0.1866194565003307   T   T   T
  0.6567187427371772  0.6153066548306224  0.2913646758650563   T   T   T
  0.5437775765006037  0.7884789326278906  0.2963920756528855   T   T   T
  0.0531635873166773  0.0412449122139403  0.3624646160395368   T   T   T
  0.4784208468440477  0.4620107816830336  0.3339272756745082   T   T   T
  0.0403562456162605  0.6044680802100253  0.3954417088538767   T   T   T
  0.1563235672586663  0.5323522819067493  0.1864323843751545   T   T   T
  0.4570723699121229  0.9018148981076326  0.2531946485980192   T   T   T
  0.2841094506031552  0.0678214883219543  0.3438638677444517   T   T   T
  0.7253142132250174  0.0955273011773331  0.4068770365030767   T   T   T
  0.7701118921669933  0.4234510825008690  0.1870259677873920   T   T   T
  0.5316744062301377  0.0691638078602178  0.1778283440777026   T   T   T
  0.6453899168761851  0.6934429970312109  0.1982511607577906   T   T   T
  0.7472050260576539  0.4817771556688534  0.3965677306420611   T   T   T
  0.2554580471939913  0.6319460581079374  0.2387518600018755   T   T   T
  0.4625608977457272  0.2829084422093830  0.3702192895234944   T   T   T
  0.1419353650037027  0.3317104802613531  0.3701192798564387   T   T   T
  0.0290161726588369  0.2642536146801305  0.1757769131416915   T   T   T
  0.8359595330049913  0.9345625237054073  0.1718729030766582   T   T   T
  0.2945720237826351  0.0152393978437981  0.2500737699789067   T   T   T
  0.7470310035553532  0.2755014730493735  0.3626841556789244   T   T   T
  0.6253477761243582  0.1833923307688105  0.3163033413768197   T   T   T
  0.2303849999143734  0.7768177967583266  0.3546771105145972   T   T   T
  0.6615939800370965  0.8550286453860462  0.3756202270863329   T   T   T
  0.8621865181193786  0.6887054592025423  0.3249044935727063   T   T   T
  0.2368402735987698  0.2499608783685827  0.1562763781436590   T   T   T
  0.0227434439684004  0.9352555467167377  0.2338297474520104   T   T   T
  0.8409584724366309  0.7421121822679796  0.3766596607127946   T   T   T
  0.2500846208822152  0.3626526885382529  0.3061569062638163   T   T   T
  0.0849999890801880  0.9389719396061345  0.1790333561399077   T   T   T
  0.0327167943024071  0.1877119740847180  0.2292869149287481   T   T   T
  0.0127087186092218  0.3685350698247707  0.3291886722231251   T   T   T
  0.2481729690049603  0.4006909746166115  0.2518400184042021   T   T   T
  0.9864841070285304  0.6613768936523664  0.1764303003106937   T   T   T
  0.4847601111841375  0.5801823281650215  0.3890814218565369   T   T   T
  0.8145386466341631  0.1256939538196891  0.2950058493728026   T   T   T
  0.7700481119173860  0.0858667816287110  0.2400323769824660   T   T   T
  0.9443688100583579  0.9791783285770741  0.3131912642020337   T   T   T
  0.5678496613257049  0.8810177364339319  0.2080058953096427   T   T   T
  0.4943473267760644  0.8863889310772652  0.3409729751835984   T   T   T
  0.9269868767025417  0.4906063460454943  0.2492090323843017   T   T   T
  0.9277420885348866  0.6322508984644836  0.2526922454587776   T   T   T
  0.3268965741438493  0.3101263706166077  0.2406347891641476   T   T   T
  0.3581082457224169  0.1803949903656920  0.2372707987005075   T   T   T
  0.0172030230072848  0.5095357680028686  0.3164137034569912   T   T   T
  0.0194243992408345  0.5874409161834437  0.2890979712175440   T   T   T
  0.2620866642500436  0.0945308641663205  0.3119986840768932   T   T   T
  0.1019752807227191  0.0358674490176419  0.3035302380503256   T   T   T
  0.8698252734138536  0.7893163903979770  0.2424572820944788   T   T   T
  0.7521021760547214  0.6917356220799169  0.2610004616657926   T   T   T
  0.7592323916884066  0.3350769968669826  0.1639925854670848   T   T   T
  0.6677653476093292  0.1595369332416142  0.1607895203351343   T   T   T
  0.7734776465891290  0.3866500591212254  0.2205539485278646   T   T   T
  0.7096002542733315  0.3501174252553041  0.2495806706316239   T   T   T
  0.5134886897558566  0.3199448313501688  0.2629689114200245   T   T   T
  0.6099343055624147  0.4539230771626195  0.2794272234195141   T   T   T
  0.4536248986601620  0.3283408922913026  0.2007133470848547   T   T   T
  0.4392004609257649  0.3761799563931016  0.1729586648550027   T   T   T
  0.7358814884053747  0.6462863176645052  0.3042521940968758   T   T   T
  0.6185375486637632  0.6745128609184997  0.2963114068349899   T   T   T
  0.5279480010060779  0.8266745299306624  0.3126967867363631   T   T   T
  0.5225707658307502  0.8263807504751757  0.2802176215749149   T   T   T
  0.9995718704443411  0.9735067857941853  0.3780681537534471   T   T   T
  0.1408299584970485  0.0349165242457081  0.3613241427485276   T   T   T
  0.3882369909457828  0.4273241576423812  0.3224275930939959   T   T   T
  0.5514653217450486  0.4972001537911885  0.3190908947358487   T   T   T
  0.0258600176844734  0.5148741940710211  0.3963399155942605   T   T   T
  0.9545110923127818  0.5941263499725385  0.4026033186186746   T   T   T
  0.1061809965141204  0.5858468979679150  0.1853416127671586   T   T   T
  0.2356705369203436  0.5690701090876337  0.1722172252088060   T   T   T
  0.3735744343753955  0.8028042693928354  0.2526265486334350   T   T   T
  0.5141639591342595  0.8977873452467283  0.2378886015284790   T   T   T
  0.2646829071526595  0.9702644428541797  0.3470166465812659   T   T   T
  0.3676036971500257  0.1518036539003101  0.3529502340055161   T   T   T
  0.7304982460382434  0.1566789721030148  0.3932054954511768   T   T   T
  0.8026063333225079  0.1510691899066675  0.4199950544658878   T   T   T
  0.6807627520664189  0.4315310266475057  0.1847292724932759   T   T   T
  0.8368151525069845  0.5191307462165808  0.1806961085595468   T   T   T
  0.5451364662578447  0.9986053492868376  0.1879800582591682   T   T   T
  0.4451412011066539  0.0198325314495567  0.1678423690889238   T   T   T
  0.6117776463699812  0.5978869133999447  0.1930136555905307   T   T   T
  0.7177095603944662  0.7004137255140790  0.2122229387888220   T   T   T
  0.6556643206935495  0.4703606335979744  0.4001420984136635   T   T   T
  0.7307695664453236  0.4087187407746823  0.3834074223512317   T   T   T
  0.2360080401522394  0.6254503678957913  0.2185212621885571   T   T   T
  0.1835579267924954  0.6413205385295361  0.2486273215718659   T   T   T
  0.4812369788666241  0.3556787683298989  0.3560844798081537   T   T   T
  0.4218270691812748  0.2984360219922438  0.3858759759576060   T   T   T
  0.1120977141745941  0.2295990805404229  0.3717945250965571   T   T   T
  0.2381377385128585  0.3815927964036296  0.3645811965580363   T   T   T
  0.0581486408069921  0.3618937321548640  0.1768390807097270   T   T   T
  0.9477674897588917  0.2162322139172816  0.1627037859621407   T   T   T
  0.7564114506619286  0.8432555325741895  0.1769861239797673   T   T   T
  0.8108907404413580  0.9347772396473980  0.1527330615947473   T   T   T
  0.2645254095750770  0.0345318286773452  0.2673614388688250   T   T   T
  0.3660403130837954  0.9934981142865430  0.2537745469529570   T   T   T
  0.8401893755060289  0.2985706725487431  0.3568422576628663   T   T   T
  0.6903063663204817  0.2314867585830334  0.3474349762632855   T   T   T
  0.6811771552586029  0.1537812531315851  0.3054811601224159   T   T   T
  0.6040556589261395  0.2467671974643393  0.3068086618771438   T   T   T
  0.1641960660482893  0.7432695933660736  0.3397669150843558   T   T   T
  0.1829650866077264  0.7219057879788792  0.3709669647558853   T   T   T
  0.6708766708016357  0.9286029739408810  0.3884240876082400   T   T   T
  0.6057424564313098  0.8738606074150489  0.3614582537604008   T   T   T
  0.9207659110179310  0.6465994602852049  0.3210092444150913   T   T   T
  0.8730349048712949  0.6945606478987181  0.3440194868741268   T   T   T
  0.1556643468535120  0.2592223043763087  0.1619051001885859   T   T   T
  0.2213492708781206  0.1588916798503055  0.1611789729302891   T   T   T
  0.0322751536166551  0.0285187964924851  0.2332473354371775   T   T   T
  0.1076985055640276  0.9438671140957636  0.2413725228096842   T   T   T
  0.7770531648664868  0.7781667944651319  0.3791818738206580   T   T   T
  0.7925742628196553  0.6393782212004967  0.3827593690819645   T   T   T
  0.2320137272055899  0.2686080966088832  0.3020775329315442   T   T   T
  0.1629623059353326  0.3615351980149469  0.3072578611993146   T   T   T
  0.0031200604434973  0.9403226239159158  0.1711811944202012   T   T   T
  0.0809847860397110  0.9542644498414855  0.1990291426764363   T   T   T
  0.0354364891999936  0.2036664015932695  0.2101705430140371   T   T   T
  0.1178348512146517  0.2748738342516339  0.2358855960184245   T   T   T
  0.9490761736958218  0.2725912341359737  0.3246191923551093   T   T   T
  0.0681203273708156  0.3609359174870873  0.3450643352307649   T   T   T
  0.2638590041063619  0.4969469636627306  0.2467758540218845   T   T   T
  0.2679921096633260  0.4013697447845681  0.2708814783007910   T   T   T
  0.0251221637894877  0.7637911362938737  0.1795312323330904   T   T   T
  0.0011499816353926  0.6575345344702456  0.1575292284995131   T   T   T
  0.5377203852764050  0.6847088845984222  0.3892696783494334   T   T   T
  0.4931889938109150  0.5677425560860887  0.3693055527940950   T   T   T
  0.8308862496781825  0.0530553884989529  0.3022239021556736   T   T   T
  0.8226550308531919  0.1139463438745918  0.2755298830547490   T   T   T
  0.8662793060955474  0.1071426717783286  0.2334706876210119   T   T   T
  0.7721737035079576  0.1779231717500678  0.2368097296081592   T   T   T
  0.8963308796148777  0.8778952746815141  0.3124273930733339   T   T   T
  0.9566185653630116  0.0028728639830213  0.3323722296503414   T   T   T
  0.6641975569908347  0.9530877943673985  0.2141566205752292   T   T   T
  0.5760115090713058  0.8007009584239209  0.2036792400080160   T   T   T
  0.5048317607198908  0.9767251467805137  0.3368032722509282   T   T   T
  0.3954857613433657  0.8332441111146383  0.3485075574456962   T   T   T
 
