add_o2_ff6_small
   1.000000000000000
  11.154999733000000   0.000000000000000   0.000000000000000
  -5.577499866499999   9.660513148000001   0.000000000000000
   0.000000000000003   0.000000000000005  50.000000000000000
    Pt     O     H
    48    48    96
Selective dynamics
Direct
   0.080830000000000   0.165420000000000   0.015980000000000   F   F   F
   0.330850010000000   0.165420000000000   0.015980000000000   F   F   F
   0.580869970000000   0.165420000000000   0.015980000000000   F   F   F
   0.830890000000000   0.165420000000000   0.015980000000000   F   F   F
   0.080849998000000   0.415400000000000   0.015980000000000   F   F   F
   0.330780000000000   0.415400000000000   0.015980000000000   F   F   F
   0.580810010000000   0.415400000000000   0.015980000000000   F   F   F
   0.830829980000000   0.415400000000000   0.015980000000000   F   F   F
   0.080789998000000   0.665390010000000   0.015980000000000   F   F   F
   0.330810010000000   0.665390010000000   0.015980000000000   F   F   F
   0.580829980000000   0.665390010000000   0.015980000000000   F   F   F
   0.830860020000000   0.665390010000000   0.015980000000000   F   F   F
   0.080820002000000   0.915380000000000   0.015980000000000   F   F   F
   0.330839990000000   0.915380000000000   0.015980000000000   F   F   F
   0.580770020000000   0.915380000000000   0.015980000000000   F   F   F
   0.830789980000000   0.915380000000000   0.015980000000000   F   F   F
   0.164220000000000   0.082089998000000   0.061519999000000   F   F   F
   0.414150000000000   0.082089998000000   0.061519999000000   F   F   F
   0.664170030000000   0.082089998000000   0.061519999000000   F   F   F
   0.914189990000000   0.082089998000000   0.061519999000000   F   F   F
   0.164150000000000   0.332069990000000   0.061519999000000   F   F   F
   0.414180010000000   0.332069990000000   0.061519999000000   F   F   F
   0.664200010000000   0.332069990000000   0.061519999000000   F   F   F
   0.914219980000000   0.332069990000000   0.061519999000000   F   F   F
   0.164180000000000   0.582059980000000   0.061519999000000   F   F   F
   0.414200010000000   0.582059980000000   0.061519999000000   F   F   F
   0.664139990000000   0.582059980000000   0.061519999000000   F   F   F
   0.914160010000000   0.582059980000000   0.061519999000000   F   F   F
   0.164120000000000   0.832050030000000   0.061519999000000   F   F   F
   0.414139990000000   0.832050030000000   0.061519999000000   F   F   F
   0.664160010000000   0.832050030000000   0.061519999000000   F   F   F
   0.914189990000000   0.832050030000000   0.061519999000000   F   F   F
   0.010669936435715   0.001195755132728   0.107905996193930   T   T   T
   0.255370855863874   0.001027122903420   0.109252765767692   T   T   T
   0.508167502229815   0.997022992431884   0.109484416274774   T   T   T
   0.763737201294121   0.002094540565147   0.110743045441672   T   T   T
   0.012210170070710   0.255686830943712   0.107728980814206   T   T   T
   0.256210528577985   0.242446389727138   0.110533693456401   T   T   T
   0.499340090737043   0.247164653873721   0.107506125066151   T   T   T
   0.748918082992263   0.254380445285672   0.108755133805526   T   T   T
   0.000507149630107   0.503201366909551   0.108846277813283   T   T   T
   0.250047355152545   0.505305412822079   0.109765501505627   T   T   T
   0.507331553291872   0.492136960811520   0.107722757029913   T   T   T
   0.757094529889191   0.499985912007673   0.108230298667546   T   T   T
   0.002699839654877   0.754525111332524   0.106835905253533   T   T   T
   0.252992065496458   0.754671948134945   0.109109356570431   T   T   T
   0.514226755897125   0.758067255531304   0.109923322640657   T   T   T
   0.757204873330046   0.751205154145068   0.110745502929326   T   T   T
   0.984639965626909   0.586157347082982   0.256692339345094   T   T   T
   0.390511806536097   0.280606284404124   0.233256372650480   T   T   T
   0.043624796529816   0.603248431894831   0.308795055078308   T   T   T
   0.205752211713973   0.101777671773053   0.297386042683967   T   T   T
   0.795626608440416   0.693764931693836   0.243520779652855   T   T   T
   0.755716117290915   0.252727830797767   0.152598504967540   T   T   T
   0.785195509198235   0.349199464050966   0.237385531823336   T   T   T
   0.603416995240207   0.365816511491296   0.272996366901320   T   T   T
   0.507946756543610   0.389353722602297   0.186619456500331   T   T   T
   0.656718742737177   0.615306654830622   0.291364675865056   T   T   T
   0.543777576500604   0.788478932627891   0.296392075652886   T   T   T
   0.053163587316677   0.041244912213940   0.362464616039537   T   T   T
   0.478420846844048   0.462010781683034   0.333927275674508   T   T   T
   0.040356245616260   0.604468080210025   0.395441708853877   T   T   T
   0.156323567258666   0.532352281906749   0.186432384375154   T   T   T
   0.457072369912123   0.901814898107633   0.253194648598019   T   T   T
   0.284109450603155   0.067821488321954   0.343863867744452   T   T   T
   0.725314213225017   0.095527301177333   0.406877036503077   T   T   T
   0.770111892166993   0.423451082500869   0.187025967787392   T   T   T
   0.531674406230138   0.069163807860218   0.177828344077703   T   T   T
   0.645389916876185   0.693442997031211   0.198251160757791   T   T   T
   0.747205026057654   0.481777155668853   0.396567730642061   T   T   T
   0.255458047193991   0.631946058107937   0.238751860001876   T   T   T
   0.462560897745727   0.282908442209383   0.370219289523494   T   T   T
   0.141935365003703   0.331710480261353   0.370119279856439   T   T   T
   0.029016172658837   0.264253614680130   0.175776913141691   T   T   T
   0.835959533004991   0.934562523705407   0.171872903076658   T   T   T
   0.294572023782635   0.015239397843798   0.250073769978907   T   T   T
   0.747031003555353   0.275501473049374   0.362684155678924   T   T   T
   0.625347776124358   0.183392330768811   0.316303341376820   T   T   T
   0.230384999914373   0.776817796758327   0.354677110514597   T   T   T
   0.661593980037096   0.855028645386046   0.375620227086333   T   T   T
   0.862186518119379   0.688705459202542   0.324904493572706   T   T   T
   0.236840273598770   0.249960878368583   0.156276378143659   T   T   T
   0.022743443968400   0.935255546716738   0.233829747452010   T   T   T
   0.840958472436631   0.742112182267980   0.376659660712795   T   T   T
   0.250084620882215   0.362652688538253   0.306156906263816   T   T   T
   0.084999989080188   0.938971939606134   0.179033356139908   T   T   T
   0.032716794302407   0.187711974084718   0.229286914928748   T   T   T
   0.012708718609222   0.368535069824771   0.329188672223125   T   T   T
   0.248172969004960   0.400690974616612   0.251840018404202   T   T   T
   0.986484107028530   0.661376893652366   0.176430300310694   T   T   T
   0.484760111184137   0.580182328165021   0.389081421856537   T   T   T
   0.814538646634163   0.125693953819689   0.295005849372803   T   T   T
   0.770048111917386   0.085866781628711   0.240032376982466   T   T   T
   0.944368810058358   0.979178328577074   0.313191264202034   T   T   T
   0.567849661325705   0.881017736433932   0.208005895309643   T   T   T
   0.494347326776064   0.886388931077265   0.340972975183598   T   T   T
   0.926986876702542   0.490606346045494   0.249209032384302   T   T   T
   0.927742088534887   0.632250898464484   0.252692245458778   T   T   T
   0.326896574143849   0.310126370616608   0.240634789164148   T   T   T
   0.358108245722417   0.180394990365692   0.237270798700507   T   T   T
   0.017203023007285   0.509535768002869   0.316413703456991   T   T   T
   0.019424399240835   0.587440916183444   0.289097971217544   T   T   T
   0.262086664250044   0.094530864166321   0.311998684076893   T   T   T
   0.101975280722719   0.035867449017642   0.303530238050326   T   T   T
   0.869825273413854   0.789316390397977   0.242457282094479   T   T   T
   0.752102176054721   0.691735622079917   0.261000461665793   T   T   T
   0.759232391688407   0.335076996866983   0.163992585467085   T   T   T
   0.667765347609329   0.159536933241614   0.160789520335134   T   T   T
   0.773477646589129   0.386650059121225   0.220553948527865   T   T   T
   0.709600254273332   0.350117425255304   0.249580670631624   T   T   T
   0.513488689755857   0.319944831350169   0.262968911420024   T   T   T
   0.609934305562415   0.453923077162619   0.279427223419514   T   T   T
   0.453624898660162   0.328340892291303   0.200713347084855   T   T   T
   0.439200460925765   0.376179956393102   0.172958664855003   T   T   T
   0.735881488405375   0.646286317664505   0.304252194096876   T   T   T
   0.618537548663763   0.674512860918500   0.296311406834990   T   T   T
   0.527948001006078   0.826674529930662   0.312696786736363   T   T   T
   0.522570765830750   0.826380750475176   0.280217621574915   T   T   T
   0.999571870444341   0.973506785794185   0.378068153753447   T   T   T
   0.140829958497048   0.034916524245708   0.361324142748528   T   T   T
   0.388236990945783   0.427324157642381   0.322427593093996   T   T   T
   0.551465321745049   0.497200153791188   0.319090894735849   T   T   T
   0.025860017684473   0.514874194071021   0.396339915594261   T   T   T
   0.954511092312782   0.594126349972539   0.402603318618675   T   T   T
   0.106180996514120   0.585846897967915   0.185341612767159   T   T   T
   0.235670536920344   0.569070109087634   0.172217225208806   T   T   T
   0.373574434375396   0.802804269392835   0.252626548633435   T   T   T
   0.514163959134259   0.897787345246728   0.237888601528479   T   T   T
   0.264682907152660   0.970264442854180   0.347016646581266   T   T   T
   0.367603697150026   0.151803653900310   0.352950234005516   T   T   T
   0.730498246038243   0.156678972103015   0.393205495451177   T   T   T
   0.802606333322508   0.151069189906668   0.419995054465888   T   T   T
   0.680762752066419   0.431531026647506   0.184729272493276   T   T   T
   0.836815152506984   0.519130746216581   0.180696108559547   T   T   T
   0.545136466257845   0.998605349286838   0.187980058259168   T   T   T
   0.445141201106654   0.019832531449557   0.167842369088924   T   T   T
   0.611777646369981   0.597886913399945   0.193013655590531   T   T   T
   0.717709560394466   0.700413725514079   0.212222938788822   T   T   T
   0.655664320693550   0.470360633597974   0.400142098413663   T   T   T
   0.730769566445324   0.408718740774682   0.383407422351232   T   T   T
   0.236008040152239   0.625450367895791   0.218521262188557   T   T   T
   0.183557926792495   0.641320538529536   0.248627321571866   T   T   T
   0.481236978866624   0.355678768329899   0.356084479808154   T   T   T
   0.421827069181275   0.298436021992244   0.385875975957606   T   T   T
   0.112097714174594   0.229599080540423   0.371794525096557   T   T   T
   0.238137738512858   0.381592796403630   0.364581196558036   T   T   T
   0.058148640806992   0.361893732154864   0.176839080709727   T   T   T
   0.947767489758892   0.216232213917282   0.162703785962141   T   T   T
   0.756411450661929   0.843255532574190   0.176986123979767   T   T   T
   0.810890740441358   0.934777239647398   0.152733061594747   T   T   T
   0.264525409575077   0.034531828677345   0.267361438868825   T   T   T
   0.366040313083795   0.993498114286543   0.253774546952957   T   T   T
   0.840189375506029   0.298570672548743   0.356842257662866   T   T   T
   0.690306366320482   0.231486758583033   0.347434976263286   T   T   T
   0.681177155258603   0.153781253131585   0.305481160122416   T   T   T
   0.604055658926140   0.246767197464339   0.306808661877144   T   T   T
   0.164196066048289   0.743269593366074   0.339766915084356   T   T   T
   0.182965086607726   0.721905787978879   0.370966964755885   T   T   T
   0.670876670801636   0.928602973940881   0.388424087608240   T   T   T
   0.605742456431310   0.873860607415049   0.361458253760401   T   T   T
   0.920765911017931   0.646599460285205   0.321009244415091   T   T   T
   0.873034904871295   0.694560647898718   0.344019486874127   T   T   T
   0.155664346853512   0.259222304376309   0.161905100188586   T   T   T
   0.221349270878121   0.158891679850306   0.161178972930289   T   T   T
   0.032275153616655   0.028518796492485   0.233247335437177   T   T   T
   0.107698505564028   0.943867114095764   0.241372522809684   T   T   T
   0.777053164866487   0.778166794465132   0.379181873820658   T   T   T
   0.792574262819655   0.639378221200497   0.382759369081965   T   T   T
   0.232013727205590   0.268608096608883   0.302077532931544   T   T   T
   0.162962305935333   0.361535198014947   0.307257861199315   T   T   T
   0.003120060443497   0.940322623915916   0.171181194420201   T   T   T
   0.080984786039711   0.954264449841486   0.199029142676436   T   T   T
   0.035436489199994   0.203666401593270   0.210170543014037   T   T   T
   0.117834851214652   0.274873834251634   0.235885596018424   T   T   T
   0.949076173695822   0.272591234135974   0.324619192355109   T   T   T
   0.068120327370816   0.360935917487087   0.345064335230765   T   T   T
   0.263859004106362   0.496946963662731   0.246775854021885   T   T   T
   0.267992109663326   0.401369744784568   0.270881478300791   T   T   T
   0.025122163789488   0.763791136293874   0.179531232333090   T   T   T
   0.001149981635393   0.657534534470246   0.157529228499513   T   T   T
   0.537720385276405   0.684708884598422   0.389269678349433   T   T   T
   0.493188993810915   0.567742556086089   0.369305552794095   T   T   T
   0.830886249678182   0.053055388498953   0.302223902155674   T   T   T
   0.822655030853192   0.113946343874592   0.275529883054749   T   T   T
   0.866279306095547   0.107142671778329   0.233470687621012   T   T   T
   0.772173703507958   0.177923171750068   0.236809729608159   T   T   T
   0.896330879614878   0.877895274681514   0.312427393073334   T   T   T
   0.956618565363012   0.002872863983021   0.332372229650341   T   T   T
   0.664197556990835   0.953087794367399   0.214156620575229   T   T   T
   0.576011509071306   0.800700958423921   0.203679240008016   T   T   T
   0.504831760719891   0.976725146780514   0.336803272250928   T   T   T
   0.395485761343366   0.833244111114638   0.348507557445696   T   T   T

