log             ${sname}.2pt.eng
compute         atomPE all pe/atom
compute         atomKE all ke/atom
variable        atomEng atom c_atomPE+c_atomKE
timestep	2.0

fix             shakeH all shake 0.0001 20 500 m shakeOpts
print "================================================"
print "NVT dynamics for 20ps dumping velocities"
print "================================================"
thermo          2
thermo_style    custom etotal ke temp pe ebond eangle edihed eimp evdwl ecoul elong press vol
thermo_modify	line multi
fix             1 all nvt temp 300.0 300.0 100.0
dump            1 all custom 2 ${sname}.2pt.lammps id type xu yu zu vx vy vz 
dump            4 all custom 2 ${sname}.2pt.atom.eng id v_atomEng
run             10000
undump          1
undump		4
unfix           1

