print                          .
print ==========================================
print "500 steps CG Minimization"
print ==========================================
print                          .

fix		boxrel all box/relax iso 1.0 vmax 0.01
dump            traj all custom 25 ${sname}.min.lammps id type xu yu zu
thermo          10
min_style       sd
minimize        1.0e-4 1.0e-4 100 1000
unfix		boxrel
min_style       cg
minimize        1.0e-4 1.0e-4  500 5000
undump          traj

print                          .
print =====================================
print "NVT dynamics to heat system"
print =====================================
print            .

reset_timestep  0
timestep        1.0
thermo		100
shakeOpts
fix		soluthermostat solute rigid/nvt single temp 1.0 ${temp} 100.0
fix		solvthermostat solvent nvt temp 1.0 ${temp} 100.0
dump		traj all custom 1000 ${sname}.heat.lammps id type xu yu zu
run		100000
undump		traj
unfix		soluthermostat
unfix		solvthermostat

reset_timestep	0
print                          .
print ================================================
print "NPT dynamics with an isotropic pressure of 1atm."
print ================================================
print                       .

timestep        2.0
fix             soluthermostat solute rigid single 
fix             solvthermostat solvent npt temp ${temp} ${temp} 100.0 iso 1.0 1.0 2000.0
thermo          100
thermo_style    multi
restart         100000 ${sname}.npt.*.restart
dump            traj all custom 5000 ${sname}.npt.lammps id type xu yu zu vx vy vz
run             3000000 # run for 6 ns
unfix           soluthermostat
unfix           solvthermostat
undump          traj
unfix		shakeH
