print                          .
print ==========================================
print "500 steps CG Minimization"
print ==========================================
print                          .

dump            1 all atom 25 ${sname}.min.lammpstrj
dump_modify     1 image yes scale yes
thermo          10
min_style       sd
minimize        1.0e-4 1.0e-4 500 5000
min_style       cg
minimize        1.0e-4 1.0e-4 500 5000
#now minimize the entire system
minimize        1.0e-4 1.0e-4 500 5000
undump          1

print                          .
print =====================================
print "NVT dynamics to heat system"
print =====================================
print            .

reset_timestep  0
timestep        1.0
velocity        all create 0.0 12345678 dist uniform
thermo          100
thermo_style    multi
timestep        1.0
dump            1 all custom 1000 ${sname}.heat.lammpstrj id type xu yu zu vx vy vz
fix             4 all nvt temp 1.0 300.0 100.0
run             10000
unfix           4
undump          1

print                          .
print ================================================
print "NPT dynamics with an isotropic pressure of 1atm."
print ================================================
print                       .

timestep        1.0
fix             2 all npt temp 300.0 300.0 100.0 iso 1.0 1.0 2000.0
thermo          100
thermo_style    custom etotal ke temp pe ebond eangle edihed eimp evdwl ecoul elong press vol lx ly lz
thermo_modify	line multi
restart         50000 ${sname}.npt.*.restart
dump            1 all custom 5000 ${sname}.npt.lammps id type xu yu zu vx vy vz
run             7500000 # run for 15 ns
unfix           2
undump          1
