 C 
 1.0000000000000000
     3.5132360050092188   -0.0000000000000000   -0.0000000000000000
    -0.0000000000000000    3.5132360050092188   -0.0000000000000000
     0.0000000000000000   -0.0000000000000000    3.5132360050092188
   8
Cartesian
  0.0000000000000000  0.0000000000000000  0.0000000000000000
  0.0000000000000000  1.7566180025046088  1.7566180025046088
  1.7566180025046088  1.7566180025046088  0.0000000000000000
  1.7566180025046088  0.0000000000000000  1.7566180025046088
  2.6349270634819173  0.8783090012523044  2.6349270634819173
  0.8783090012523044  0.8783090012523044  0.8783090012523044
  0.8783090012523044  2.6349270634819173  2.6349270634819173
  2.6349270634819173  2.6349270634819173  0.8783090012523044
