graphite                                
   1.00000000000000     
     2.4819487690084672    0.0000000000000000    0.0000000000000000
    -1.2409743845546799    2.1494306848475140    0.0000000000000000
     0.0000000000000010    0.0000000000000010   12.0000000000000000
   C 
     2
Direct
  0.0000000000000000  0.0000000000000000  0.1416700039999981
  0.3333300050000005  0.6666700239999983  0.1408366706666647
 
  0.00000000E+00  0.00000000E+00  0.00000000E+00
  0.00000000E+00  0.00000000E+00  0.00000000E+00
