
 System = ORR
##################################
#  Start parameter for this run  #
##################################
 ISTART   = 0
 ICHARG   = 2

##################################
#  Electronic Relaxation         #
##################################
 PREC     = LOW
 ENCUT    = 320
 NELMIN   = 4
 EDIFF    = 1.0E-4

##################################
# Ionic Relaxation               #
##################################
 ISYM    = 0            
 IBRION  = 0
 ISIF    = 2

 POTIM   = 1.2000      # Time step
 TEBEG   = 300.0
 TEEND   = 300.0
 MDALGO  = 21           # use nose hoover
 SMASS   = 3
 NBLOCK  = 1            # Interval to save the trajectory
 KBLOCK  = 100

 NSW      = 1000        # Number of steps

##################################
# Meta                           #
##################################
 HILLS_H = 0.08
 HILLS_W = 0.18
 HILLS_BIN = 20

##################################
# General Params                 #
##################################
 ISMEAR   = 1
 SIGMA    = 0.2

##################################
# Output control                 #
##################################
 LWAVE = .FALSE.
 LCHARG = .FALSE.
 NWRITE = 0

##################################
# Corrections                    #
##################################
 IVDW = 12
 IDIPOL = 3

##################################
# Other parameters               #
##################################
 MAXMIX = 40
 LREAL = Auto
 IALGO = 48
 NPAR = 8

