atom_style      charge
boundary        p p p

units		real

read_data       lammps.data
pair_style      lj/cut 10
pair_coeff      * * 1 1

group           1 type 1 # C
group           2 type 2 # H
group           3 type 3 # O
group           4 type 4 # S
group           5 type 5 # F
group           6 type 6 # N
group           7 type 7 # Li

atom_modify     sort 0 0

compute         myrdf all rdf 500 1 1 1 2 1 3 1 4 1 5 1 6 1 7 &
                                  2 2 2 3 2 4 2 5 2 6 2 7 &
                                  3 3 3 4 3 5 3 6 3 7 &
                                  4 4 4 5 4 6 4 7 &
                                  5 5 5 6 5 7 &
                                  6 6 6 7 &
                                  7 7
fix             11 all ave/time 10 1 10 c_myrdf[*] file rdf.dat mode vector

rerun           movie.xyz dump x y z box no format xyz



