OUTCAR.0006.+1.out 1.0e-02              
   1.00000000000000     
     2.4819487690084672    0.0000000000000000    0.0000000000000000
    -1.2409743845546799    2.1494306848475140    0.0000000000000000
     0.0000000000000010    0.0000000000000010   12.0000000000000000
   C 
     2
Direct
  0.0032833820485862  0.0017657267232494  0.1416700386583329
  0.3300402381476815  0.6648993472899036  0.1416702350416656
 
  0.00000000E+00  0.00000000E+00  0.00000000E+00
  0.00000000E+00  0.00000000E+00  0.00000000E+00
